50 5
77 91 91 5
64 36 7 73
66 63 40 99
33 69 92 23
47 83 47 83
67 29 49 9
61 33 87 89
99 97 76 94
54 1 49 84
66 74 41 97
57 74 29 99
65 53 27 43
24 74 14 71
30 54 68 86
95 21 9 51
40 41 69 22
85 92 94 2
46 2 51 60
46 83 64 17
55 63 67 81
39 87 47 6
22 37 66 40
41 64 27 32
41 65 49 82
40 40 92 63
19 77 74 50
56 1 59 74
16 12 36 36
48 54 79 56
38 39 16 10
25 24 43 24
2 79 4 82
99 47 3 90
67 80 11 29
94 40 13 99
50 44 95 38
26 58 64 7
54 20 38 77
67 50 32 50
57 16 76 4
18 99 66 11
8 22 37 73
81 33 28 16
49 60 7 27
96 87 2 98
18 55 88 30
50 70 92 51
46 93 58 77
22 52 24 54
48 41 2 92
